Jobs = 5;
Machines = 3;

ProcessingTimes = [|49, 45, 64
                   |26, 57, 90
                   |95, 59, 67
                   |11, 24, 13
                   |85, 87, 66|];

ReleaseDates = [0, 0, 189, 0, 107];

DueDates = [190, 290, 370, -1, -1];

Weights = [3, 3, 2, 1, 1];

